;--------------------------------------------------------------------------
; Benchmark created with Zazu
; Benchmark: 		wensley_norm_inv2_3xlen2
; Created:   		2022-01-11 18:12
; Generator of the ideal: 
; 		 -2*b00*y00 + a00*d00 + 2*b00*y - a*d00
; 		 -b*d00 + b00*d
; 		 a*d - 2*b*y + 2*b*y00 - a00*d
; Testing invariant: -a^6*b^6*b00*d^6*y^5 + a^5*b^5*d^2*d00*y^2 + a^6*b^7*d^5*d00*y^5 - a^6*b^4*b00*d^6*y^5 - a^7*b^7*b00*d^3*y^2 + a^5*b^7*d^2*d00*y^2 + a^4*b^4*d^5*d00*y^5 - a^5*b^4*b00*d^3*y^2 - a^4*b^5*b00*d^6*y^5 + a^7*b^6*d^2*d00*y^2 - a^4*b^3*b00*d^6*y^5 - a^5*b^6*b00*d^3*y^2 + a^7*b^8*d^2*d00*y^2 + a^4*b^6*d^5*d00*y^5 + a^6*b^5*d^5*d00*y^5 - a^7*b^5*b00*d^3*y^2
;--------------------------------------------------------------------------

(set-logic NRA)
(set-option :produce-proofs true)

(declare-const a00 Real)
(declare-const b00 Real)
(declare-const d00 Real)
(declare-const y00 Real)

(assert 
	(exists
		((a Real) (b Real) (d Real) (y Real))
		(and
			(= (- (+ (* (- 2) b00 y00) (* a00 d00) (* 2 b00 y)) (* a d00)) 0)
			(= (+ (* (- 1) b d00) (* b00 d)) 0)
			(= (- (+ (- (* a d) (* 2 b y)) (* 2 b y00)) (* a00 d)) 0)

			(or
				(not (= (- (+ (- (+ (- (+ (- (+ (* (- 1) a a a a a a (/ b 2) (/ b 2) (/ b 2) (/ b 2) (/ b 2) (/ b 2) b00 (/ d 2) (/ d 2) (/ d 2) (/ d 2) (/ d 2) (/ d 2) y y y y y) (* a a a a a (/ b 2) (/ b 2) (/ b 2) (/ b 2) (/ b 2) (/ d 2) (/ d 2) d00 y y) (* a a a a a a (/ b 2) (/ b 2) (/ b 2) (/ b 2) (/ b 2) (/ b 2) (/ b 2) (/ d 2) (/ d 2) (/ d 2) (/ d 2) (/ d 2) d00 y y y y y)) (* a a a a a a (/ b 2) (/ b 2) (/ b 2) (/ b 2) b00 (/ d 2) (/ d 2) (/ d 2) (/ d 2) (/ d 2) (/ d 2) y y y y y) (* a a a a a a a (/ b 2) (/ b 2) (/ b 2) (/ b 2) (/ b 2) (/ b 2) (/ b 2) b00 (/ d 2) (/ d 2) (/ d 2) y y)) (* a a a a a (/ b 2) (/ b 2) (/ b 2) (/ b 2) (/ b 2) (/ b 2) (/ b 2) (/ d 2) (/ d 2) d00 y y) (* a a a a (/ b 2) (/ b 2) (/ b 2) (/ b 2) (/ d 2) (/ d 2) (/ d 2) (/ d 2) (/ d 2) d00 y y y y y)) (* a a a a a (/ b 2) (/ b 2) (/ b 2) (/ b 2) b00 (/ d 2) (/ d 2) (/ d 2) y y) (* a a a a (/ b 2) (/ b 2) (/ b 2) (/ b 2) (/ b 2) b00 (/ d 2) (/ d 2) (/ d 2) (/ d 2) (/ d 2) (/ d 2) y y y y y)) (* a a a a a a a (/ b 2) (/ b 2) (/ b 2) (/ b 2) (/ b 2) (/ b 2) (/ d 2) (/ d 2) d00 y y)) (* a a a a (/ b 2) (/ b 2) (/ b 2) b00 (/ d 2) (/ d 2) (/ d 2) (/ d 2) (/ d 2) (/ d 2) y y y y y) (* a a a a a (/ b 2) (/ b 2) (/ b 2) (/ b 2) (/ b 2) (/ b 2) b00 (/ d 2) (/ d 2) (/ d 2) y y)) (* a a a a a a a (/ b 2) (/ b 2) (/ b 2) (/ b 2) (/ b 2) (/ b 2) (/ b 2) (/ b 2) (/ d 2) (/ d 2) d00 y y) (* a a a a (/ b 2) (/ b 2) (/ b 2) (/ b 2) (/ b 2) (/ b 2) (/ d 2) (/ d 2) (/ d 2) (/ d 2) (/ d 2) d00 y y y y y) (* a a a a a a (/ b 2) (/ b 2) (/ b 2) (/ b 2) (/ b 2) (/ d 2) (/ d 2) (/ d 2) (/ d 2) (/ d 2) d00 y y y y y)) (* a a a a a a a (/ b 2) (/ b 2) (/ b 2) (/ b 2) (/ b 2) b00 (/ d 2) (/ d 2) (/ d 2) y y)) 0))
				(not (= (- (+ (- (+ (- (+ (- (+ (* (- 1) (+ a b) (+ a b) (+ a b) (+ a b) (+ a b) (+ a b) (/ b 2) (/ b 2) (/ b 2) (/ b 2) (/ b 2) (/ b 2) b00 (/ d 2) (/ d 2) (/ d 2) (/ d 2) (/ d 2) (/ d 2) (+ y (/ d 2)) (+ y (/ d 2)) (+ y (/ d 2)) (+ y (/ d 2)) (+ y (/ d 2))) (* (+ a b) (+ a b) (+ a b) (+ a b) (+ a b) (/ b 2) (/ b 2) (/ b 2) (/ b 2) (/ b 2) (/ d 2) (/ d 2) d00 (+ y (/ d 2)) (+ y (/ d 2))) (* (+ a b) (+ a b) (+ a b) (+ a b) (+ a b) (+ a b) (/ b 2) (/ b 2) (/ b 2) (/ b 2) (/ b 2) (/ b 2) (/ b 2) (/ d 2) (/ d 2) (/ d 2) (/ d 2) (/ d 2) d00 (+ y (/ d 2)) (+ y (/ d 2)) (+ y (/ d 2)) (+ y (/ d 2)) (+ y (/ d 2)))) (* (+ a b) (+ a b) (+ a b) (+ a b) (+ a b) (+ a b) (/ b 2) (/ b 2) (/ b 2) (/ b 2) b00 (/ d 2) (/ d 2) (/ d 2) (/ d 2) (/ d 2) (/ d 2) (+ y (/ d 2)) (+ y (/ d 2)) (+ y (/ d 2)) (+ y (/ d 2)) (+ y (/ d 2))) (* (+ a b) (+ a b) (+ a b) (+ a b) (+ a b) (+ a b) (+ a b) (/ b 2) (/ b 2) (/ b 2) (/ b 2) (/ b 2) (/ b 2) (/ b 2) b00 (/ d 2) (/ d 2) (/ d 2) (+ y (/ d 2)) (+ y (/ d 2)))) (* (+ a b) (+ a b) (+ a b) (+ a b) (+ a b) (/ b 2) (/ b 2) (/ b 2) (/ b 2) (/ b 2) (/ b 2) (/ b 2) (/ d 2) (/ d 2) d00 (+ y (/ d 2)) (+ y (/ d 2))) (* (+ a b) (+ a b) (+ a b) (+ a b) (/ b 2) (/ b 2) (/ b 2) (/ b 2) (/ d 2) (/ d 2) (/ d 2) (/ d 2) (/ d 2) d00 (+ y (/ d 2)) (+ y (/ d 2)) (+ y (/ d 2)) (+ y (/ d 2)) (+ y (/ d 2)))) (* (+ a b) (+ a b) (+ a b) (+ a b) (+ a b) (/ b 2) (/ b 2) (/ b 2) (/ b 2) b00 (/ d 2) (/ d 2) (/ d 2) (+ y (/ d 2)) (+ y (/ d 2))) (* (+ a b) (+ a b) (+ a b) (+ a b) (/ b 2) (/ b 2) (/ b 2) (/ b 2) (/ b 2) b00 (/ d 2) (/ d 2) (/ d 2) (/ d 2) (/ d 2) (/ d 2) (+ y (/ d 2)) (+ y (/ d 2)) (+ y (/ d 2)) (+ y (/ d 2)) (+ y (/ d 2)))) (* (+ a b) (+ a b) (+ a b) (+ a b) (+ a b) (+ a b) (+ a b) (/ b 2) (/ b 2) (/ b 2) (/ b 2) (/ b 2) (/ b 2) (/ d 2) (/ d 2) d00 (+ y (/ d 2)) (+ y (/ d 2)))) (* (+ a b) (+ a b) (+ a b) (+ a b) (/ b 2) (/ b 2) (/ b 2) b00 (/ d 2) (/ d 2) (/ d 2) (/ d 2) (/ d 2) (/ d 2) (+ y (/ d 2)) (+ y (/ d 2)) (+ y (/ d 2)) (+ y (/ d 2)) (+ y (/ d 2))) (* (+ a b) (+ a b) (+ a b) (+ a b) (+ a b) (/ b 2) (/ b 2) (/ b 2) (/ b 2) (/ b 2) (/ b 2) b00 (/ d 2) (/ d 2) (/ d 2) (+ y (/ d 2)) (+ y (/ d 2)))) (* (+ a b) (+ a b) (+ a b) (+ a b) (+ a b) (+ a b) (+ a b) (/ b 2) (/ b 2) (/ b 2) (/ b 2) (/ b 2) (/ b 2) (/ b 2) (/ b 2) (/ d 2) (/ d 2) d00 (+ y (/ d 2)) (+ y (/ d 2))) (* (+ a b) (+ a b) (+ a b) (+ a b) (/ b 2) (/ b 2) (/ b 2) (/ b 2) (/ b 2) (/ b 2) (/ d 2) (/ d 2) (/ d 2) (/ d 2) (/ d 2) d00 (+ y (/ d 2)) (+ y (/ d 2)) (+ y (/ d 2)) (+ y (/ d 2)) (+ y (/ d 2))) (* (+ a b) (+ a b) (+ a b) (+ a b) (+ a b) (+ a b) (/ b 2) (/ b 2) (/ b 2) (/ b 2) (/ b 2) (/ d 2) (/ d 2) (/ d 2) (/ d 2) (/ d 2) d00 (+ y (/ d 2)) (+ y (/ d 2)) (+ y (/ d 2)) (+ y (/ d 2)) (+ y (/ d 2)))) (* (+ a b) (+ a b) (+ a b) (+ a b) (+ a b) (+ a b) (+ a b) (/ b 2) (/ b 2) (/ b 2) (/ b 2) (/ b 2) b00 (/ d 2) (/ d 2) (/ d 2) (+ y (/ d 2)) (+ y (/ d 2)))) 0))
			)
		)
	)
)
(check-sat)
(get-proof)
(exit)
